\ Generated by MPModelProtoExporter
\   Name             : 
\   Format           : Free
\   Constraints      : 94
\   Variables        : 13
\     Binary         : 0
\     Integer        : 0
\     Continuous     : 13
Maximize
 Obj: -1 _1 -1 _2 -2 _3 +1 _0CT_1 +1 _0IT_2 +1 _0MC_1_3 +1 _0MI_2_3 +1 _0T_3 
Subject to
 Mono_Ineq.__H(0CT_1)____H(0CT): -1 _0CT +1 _0CT_1  >= 0
 Mono_Ineq.__H(0CT_1)____H(1): -1 _1 +1 _0CT_1  >= 0
 Additivity_Ineq.__H(0CT_1)____H(0CT)___H(1): -1 _1 -1 _0CT +1 _0CT_1  <= 0
 Mono_Ineq.__H(0IT_2)____H(0IT): -1 _0IT +1 _0IT_2  >= 0
 Mono_Ineq.__H(0IT_2)____H(2): -1 _2 +1 _0IT_2  >= 0
 Additivity_Ineq.__H(0IT_2)____H(0IT)___H(2): -1 _2 -1 _0IT +1 _0IT_2  <= 0
 Mono_Ineq.__H(0MC_1_3)____H(0MC): -1 _0MC +1 _0MC_1_3  >= 0
 Mono_Ineq.__H(0MC_1_3)____H(3): -1 _3 +1 _0MC_1_3  >= 0
 Mono_Ineq.__H(0MC_1_3)____H(1): -1 _1 +1 _0MC_1_3  >= 0
 Additivity_Ineq.__H(0MC_1_3)____H(0MC)___H(3)___H(1): -1 _1 -1 _3 -1 _0MC +1 _0MC_1_3  <= 0
 Mono_Ineq.__H(0MI_2_3)____H(0MI): -1 _0MI +1 _0MI_2_3  >= 0
 Mono_Ineq.__H(0MI_2_3)____H(3): -1 _3 +1 _0MI_2_3  >= 0
 Mono_Ineq.__H(0MI_2_3)____H(2): -1 _2 +1 _0MI_2_3  >= 0
 Additivity_Ineq.__H(0MI_2_3)____H(0MI)___H(3)___H(2): -1 _2 -1 _3 -1 _0MI +1 _0MI_2_3  <= 0
 Mono_Ineq.__H(0T_3)____H(0T): -1 _0T +1 _0T_3  >= 0
 Mono_Ineq.__H(0T_3)____H(3): -1 _3 +1 _0T_3  >= 0
 Additivity_Ineq.__H(0T_3)____H(0T)___H(3): -1 _3 -1 _0T +1 _0T_3  <= 0
 Statistics_Ineq._1__1___h(0CT_1)___0___h(1)____1___log2(2.0)_|_1_|_CT.ID: +1 _0CT_1  <= 1
 Statistics_Ineq._2__2___h(0CT_1)___1___h(1)____2___log2(1.4142135623730951)_|_2_|_CT.ID: -1 _1 +2 _0CT_1  <= 1
 Statistics_Ineq._3__3___h(0CT_1)___2___h(1)____3___log2(1.2599210498948732)_|_3_|_CT.ID: -2 _1 +3 _0CT_1  <= 1
 Statistics_Ineq._4__4___h(0CT_1)___3___h(1)____4___log2(1.189207115002721)_|_4_|_CT.ID: -3 _1 +4 _0CT_1  <= 1
 Statistics_Ineq._5__5___h(0CT_1)___4___h(1)____5___log2(1.148698354997035)_|_5_|_CT.ID: -4 _1 +5 _0CT_1  <= 1
 Statistics_Ineq._6__6___h(0CT_1)___5___h(1)____6___log2(1.122462048309373)_|_6_|_CT.ID: -5 _1 +6 _0CT_1  <= 1
 Statistics_Ineq._7__7___h(0CT_1)___6___h(1)____7___log2(1.1040895136738123)_|_7_|_CT.ID: -6 _1 +7 _0CT_1  <= 1
 Statistics_Ineq._8__8___h(0CT_1)___7___h(1)____8___log2(1.0905077326652577)_|_8_|_CT.ID: -7 _1 +8 _0CT_1  <= 1
 Statistics_Ineq._9__9___h(0CT_1)___8___h(1)____9___log2(1.080059738892306)_|_9_|_CT.ID: -8 _1 +9 _0CT_1  <= 1
 Statistics_Ineq._10__10___h(0CT_1)___9___h(1)____10___log2(1.0717734625362931)_|_10_|_CT.ID: -9 _1 +10 _0CT_1  <= 1
 Statistics_Ineq._11__h(0CT_1)___h(1)____log2(1.0)_|_inf_|_CT.ID: -1 _1 +1 _0CT_1  <= 0
 Statistics_Ineq._12__1___h(0IT_2)___0___h(2)____1___log2(113.0)_|_1_|_IT.ID: +1 _0IT_2  <= 6.82018
 Statistics_Ineq._13__2___h(0IT_2)___1___h(2)____2___log2(10.63014581273465)_|_2_|_IT.ID: -1 _2 +2 _0IT_2  <= 6.82018
 Statistics_Ineq._14__3___h(0IT_2)___2___h(2)____3___log2(4.834588127111639)_|_3_|_IT.ID: -2 _2 +3 _0IT_2  <= 6.82018
 Statistics_Ineq._15__4___h(0IT_2)___3___h(2)____4___log2(3.260390438695134)_|_4_|_IT.ID: -3 _2 +4 _0IT_2  <= 6.82018
 Statistics_Ineq._16__5___h(0IT_2)___4___h(2)____5___log2(2.574042354407865)_|_5_|_IT.ID: -4 _2 +5 _0IT_2  <= 6.82018
 Statistics_Ineq._17__6___h(0IT_2)___5___h(2)____6___log2(2.198769684871892)_|_6_|_IT.ID: -5 _2 +6 _0IT_2  <= 6.82018
 Statistics_Ineq._18__7___h(0IT_2)___6___h(2)____7___log2(1.9647030552069988)_|_7_|_IT.ID: -6 _2 +7 _0IT_2  <= 6.82018
 Statistics_Ineq._19__8___h(0IT_2)___7___h(2)____8___log2(1.8056551272862529)_|_8_|_IT.ID: -7 _2 +8 _0IT_2  <= 6.82018
 Statistics_Ineq._20__9___h(0IT_2)___8___h(2)____9___log2(1.6909074089110399)_|_9_|_IT.ID: -8 _2 +9 _0IT_2  <= 6.82018
 Statistics_Ineq._21__10___h(0IT_2)___9___h(2)____10___log2(1.6043822345089294)_|_10_|_IT.ID: -9 _2 +10 _0IT_2  <= 6.82018
 Statistics_Ineq._22__h(0IT_2)___h(2)____log2(1.0)_|_inf_|_IT.ID: -1 _2 +1 _0IT_2  <= 0
 Statistics_Ineq._23__1___h(0MC_1_3)___0___h(3)____1___log2(2609129.0)_|_1_|_MC.MOVIE_ID: +1 _0MC_1_3  <= 21.3151
 Statistics_Ineq._24__2___h(0MC_1_3)___1___h(3)____2___log2(3794.3649007442605)_|_2_|_MC.MOVIE_ID: -1 _3 +2 _0MC_1_3  <= 23.7793
 Statistics_Ineq._25__3___h(0MC_1_3)___2___h(3)____3___log2(608.8517618461212)_|_3_|_MC.MOVIE_ID: -2 _3 +3 _0MC_1_3  <= 27.7498
 Statistics_Ineq._26__4___h(0MC_1_3)___3___h(3)____4___log2(284.0352574053065)_|_4_|_MC.MOVIE_ID: -3 _3 +4 _0MC_1_3  <= 32.5997
 Statistics_Ineq._27__5___h(0MC_1_3)___4___h(3)____5___log2(190.2084852443135)_|_5_|_MC.MOVIE_ID: -4 _3 +5 _0MC_1_3  <= 37.8572
 Statistics_Ineq._28__6___h(0MC_1_3)___5___h(3)____6___log2(149.8971297734594)_|_6_|_MC.MOVIE_ID: -5 _3 +6 _0MC_1_3  <= 43.367
 Statistics_Ineq._29__7___h(0MC_1_3)___6___h(3)____7___log2(128.94997314130077)_|_7_|_MC.MOVIE_ID: -6 _3 +7 _0MC_1_3  <= 49.0747
 Statistics_Ineq._30__8___h(0MC_1_3)___7___h(3)____8___log2(116.88883901718397)_|_8_|_MC.MOVIE_ID: -7 _3 +8 _0MC_1_3  <= 54.9519
 Statistics_Ineq._31__9___h(0MC_1_3)___8___h(3)____9___log2(109.52056839032218)_|_9_|_MC.MOVIE_ID: -8 _3 +9 _0MC_1_3  <= 60.9755
 Statistics_Ineq._32__10___h(0MC_1_3)___9___h(3)____10___log2(104.8481910727191)_|_10_|_MC.MOVIE_ID: -9 _3 +10 _0MC_1_3  <= 67.1216
 Statistics_Ineq._33__h(0MC_1_3)___h(3)____log2(94.0)_|_inf_|_MC.MOVIE_ID: -1 _3 +1 _0MC_1_3  <= 6.55459
 Statistics_Ineq._34__1___h(0MC_1_3)___0___h(1)____1___log2(2609129.0)_|_1_|_MC.COMPANY_TYPE_ID: +1 _0MC_1_3  <= 21.3151
 Statistics_Ineq._35__2___h(0MC_1_3)___1___h(1)____2___log2(1845430.977361386)_|_2_|_MC.COMPANY_TYPE_ID: -1 _1 +2 _0MC_1_3  <= 41.6311
 Statistics_Ineq._36__3___h(0MC_1_3)___2___h(1)____3___log2(1644535.5505828804)_|_3_|_MC.COMPANY_TYPE_ID: -2 _1 +3 _0MC_1_3  <= 61.9477
 Statistics_Ineq._37__4___h(0MC_1_3)___3___h(1)____4___log2(1552652.8676006738)_|_4_|_MC.COMPANY_TYPE_ID: -3 _1 +4 _0MC_1_3  <= 82.2652
 Statistics_Ineq._38__5___h(0MC_1_3)___4___h(1)____5___log2(1500166.817088087)_|_5_|_MC.COMPANY_TYPE_ID: -4 _1 +5 _0MC_1_3  <= 102.583
 Statistics_Ineq._39__6___h(0MC_1_3)___5___h(1)____6___log2(1466295.809685982)_|_6_|_MC.COMPANY_TYPE_ID: -5 _1 +6 _0MC_1_3  <= 122.902
 Statistics_Ineq._40__7___h(0MC_1_3)___6___h(1)____7___log2(1442680.6626064067)_|_7_|_MC.COMPANY_TYPE_ID: -6 _1 +7 _0MC_1_3  <= 143.222
 Statistics_Ineq._41__8___h(0MC_1_3)___7___h(1)____8___log2(1425312.9782620256)_|_8_|_MC.COMPANY_TYPE_ID: -7 _1 +8 _0MC_1_3  <= 163.543
 Statistics_Ineq._42__9___h(0MC_1_3)___8___h(1)____9___log2(1412031.354243233)_|_9_|_MC.COMPANY_TYPE_ID: -8 _1 +9 _0MC_1_3  <= 183.864
 Statistics_Ineq._43__10___h(0MC_1_3)___9___h(1)____10___log2(1401567.7204422245)_|_10_|_MC.COMPANY_TYPE_ID: -9 _1 +10 _0MC_1_3  <= 204.186
 Statistics_Ineq._44__h(0MC_1_3)___h(1)____log2(1334883.0)_|_inf_|_MC.COMPANY_TYPE_ID: -1 _1 +1 _0MC_1_3  <= 20.3483
 Statistics_Ineq._45__1___h(0MI_2_3)___0___h(3)____1___log2(14464047.0)_|_1_|_MI.MOVIE_ID: +1 _0MI_2_3  <= 23.786
 Statistics_Ineq._46__2___h(0MI_2_3)___1___h(3)____2___log2(23501.729787400756)_|_2_|_MI.MOVIE_ID: -1 _3 +2 _0MI_2_3  <= 29.041
 Statistics_Ineq._47__3___h(0MI_2_3)___2___h(3)____3___log2(5536.054588475597)_|_3_|_MI.MOVIE_ID: -2 _3 +3 _0MI_2_3  <= 37.3039
 Statistics_Ineq._48__4___h(0MI_2_3)___3___h(3)____4___log2(3539.64039362658)_|_4_|_MI.MOVIE_ID: -3 _3 +4 _0MI_2_3  <= 47.1575
 Statistics_Ineq._49__5___h(0MI_2_3)___4___h(3)____5___log2(3106.3040949220513)_|_5_|_MI.MOVIE_ID: -4 _3 +5 _0MI_2_3  <= 58.0049
 Statistics_Ineq._50__6___h(0MI_2_3)___5___h(3)____6___log2(2993.744070678086)_|_6_|_MI.MOVIE_ID: -5 _3 +6 _0MI_2_3  <= 69.2864
 Statistics_Ineq._51__7___h(0MI_2_3)___6___h(3)____7___log2(2958.7564854889574)_|_7_|_MI.MOVIE_ID: -6 _3 +7 _0MI_2_3  <= 80.7154
 Statistics_Ineq._52__8___h(0MI_2_3)___7___h(3)____8___log2(2946.1084017705402)_|_8_|_MI.MOVIE_ID: -7 _3 +8 _0MI_2_3  <= 92.1968
 Statistics_Ineq._53__9___h(0MI_2_3)___8___h(3)____9___log2(2941.037811742483)_|_9_|_MI.MOVIE_ID: -8 _3 +9 _0MI_2_3  <= 103.699
 Statistics_Ineq._54__10___h(0MI_2_3)___9___h(3)____10___log2(2938.861369246534)_|_10_|_MI.MOVIE_ID: -9 _3 +10 _0MI_2_3  <= 115.21
 Statistics_Ineq._55__h(0MI_2_3)___h(3)____log2(2937.0)_|_inf_|_MI.MOVIE_ID: -1 _3 +1 _0MI_2_3  <= 11.5201
 Statistics_Ineq._56__1___h(0MI_2_3)___0___h(2)____1___log2(14835720.0)_|_1_|_MI.INFO_TYPE_ID: +1 _0MI_2_3  <= 23.8226
 Statistics_Ineq._57__2___h(0MI_2_3)___1___h(2)____2___log2(4572034.223464868)_|_2_|_MI.INFO_TYPE_ID: -1 _2 +2 _0MI_2_3  <= 44.2488
 Statistics_Ineq._58__3___h(0MI_2_3)___2___h(2)____3___log2(3486243.0281909658)_|_3_|_MI.INFO_TYPE_ID: -2 _2 +3 _0MI_2_3  <= 65.1997
 Statistics_Ineq._59__4___h(0MI_2_3)___3___h(2)____4___log2(3193457.0484238626)_|_4_|_MI.INFO_TYPE_ID: -3 _2 +4 _0MI_2_3  <= 86.4268
 Statistics_Ineq._60__5___h(0MI_2_3)___4___h(2)____5___log2(3095215.672236246)_|_5_|_MI.INFO_TYPE_ID: -4 _2 +5 _0MI_2_3  <= 107.808
 Statistics_Ineq._61__6___h(0MI_2_3)___5___h(2)____6___log2(3059428.0080923685)_|_6_|_MI.INFO_TYPE_ID: -5 _2 +6 _0MI_2_3  <= 129.269
 Statistics_Ineq._62__7___h(0MI_2_3)___6___h(2)____7___log2(3045794.1446837164)_|_7_|_MI.INFO_TYPE_ID: -6 _2 +7 _0MI_2_3  <= 150.769
 Statistics_Ineq._63__8___h(0MI_2_3)___7___h(2)____8___log2(3040432.0968020344)_|_8_|_MI.INFO_TYPE_ID: -7 _2 +8 _0MI_2_3  <= 172.287
 Statistics_Ineq._64__9___h(0MI_2_3)___8___h(2)____9___log2(3038268.697191814)_|_9_|_MI.INFO_TYPE_ID: -8 _2 +9 _0MI_2_3  <= 193.813
 Statistics_Ineq._65__10___h(0MI_2_3)___9___h(2)____10___log2(3037376.9198407093)_|_10_|_MI.INFO_TYPE_ID: -9 _2 +10 _0MI_2_3  <= 215.344
 Statistics_Ineq._66__h(0MI_2_3)___h(2)____log2(3036719.0)_|_inf_|_MI.INFO_TYPE_ID: -1 _2 +1 _0MI_2_3  <= 21.5341
 Statistics_Ineq._67__1___h(0T_3)___0___h(3)____1___log2(2097152.0)_|_1_|_T.ID: +1 _0T_3  <= 21
 Statistics_Ineq._68__2___h(0T_3)___1___h(3)____2___log2(1448.1546878700494)_|_2_|_T.ID: -1 _3 +2 _0T_3  <= 21
 Statistics_Ineq._69__3___h(0T_3)___2___h(3)____3___log2(127.99999999999997)_|_3_|_T.ID: -2 _3 +3 _0T_3  <= 21
 Statistics_Ineq._70__4___h(0T_3)___3___h(3)____4___log2(38.05462768008707)_|_4_|_T.ID: -3 _3 +4 _0T_3  <= 21
 Statistics_Ineq._71__5___h(0T_3)___4___h(3)____5___log2(18.37917367995256)_|_5_|_T.ID: -4 _3 +5 _0T_3  <= 21
 Statistics_Ineq._72__6___h(0T_3)___5___h(3)____6___log2(11.31370849898476)_|_6_|_T.ID: -5 _3 +6 _0T_3  <= 21
 Statistics_Ineq._73__7___h(0T_3)___6___h(3)____7___log2(7.999999999999999)_|_7_|_T.ID: -6 _3 +7 _0T_3  <= 21
 Statistics_Ineq._74__8___h(0T_3)___7___h(3)____8___log2(6.168843301631763)_|_8_|_T.ID: -7 _3 +8 _0T_3  <= 21
 Statistics_Ineq._75__9___h(0T_3)___8___h(3)____9___log2(5.039684199579492)_|_9_|_T.ID: -8 _3 +9 _0T_3  <= 21
 Statistics_Ineq._76__10___h(0T_3)___9___h(3)____10___log2(4.287093850145173)_|_10_|_T.ID: -9 _3 +10 _0T_3  <= 21
 Statistics_Ineq._77__h(0T_3)___h(3)____log2(1.0)_|_inf_|_T.ID: -1 _3 +1 _0T_3  <= 0
Bounds
 0 <= _1
 0 <= _2
 0 <= _3
 0 <= _0CT
 0 <= _0CT_1
 0 <= _0IT
 0 <= _0IT_2
 0 <= _0MC
 0 <= _0MC_1_3
 0 <= _0MI
 0 <= _0MI_2_3
 0 <= _0T
 0 <= _0T_3
End
